% File represents an instance of a Composite Structure problem to be solved by a CP framework
% Created on 2025-03-26 10:41:15.663
T = 56;
n = 9;
m = 12;
edges = [(2, 1),
(5, 4),
(8, 7),
(3, 2),
(6, 5),
(9, 8),
(1, 4),
(4, 7),
(2, 5),
(5, 8),
(3, 6),
(6, 9)];
counts = [|14, 14, 14, 2,
|14, 14, 14, 8,
|16, 16, 16, 8,
|12, 14, 12, 2,
|14, 14, 14, 2,
|14, 16, 14, 6,
|12, 8, 12, 2,
|14, 8, 14, 2,
|14, 12, 14, 4|];
